Gurobi Optimizer version 9.1.2 build v9.1.2rc0 (linux64)
Thread count: 36 physical cores, 72 logical processors, using up to 32 threads
Optimize a model with 12 rows, 57 columns and 590 nonzeros
Model fingerprint: 0xf32eec78
Model has 47 quadratic constraints
Coefficient statistics:
  Matrix range     [2e-05, 3e+00]
  QMatrix range    [1e+00, 1e+00]
  QLMatrix range   [1e+00, 1e+00]
  Objective range  [8e-03, 7e-01]
  Bounds range     [1e+00, 1e+00]
  RHS range        [1e+00, 1e+00]
Presolve removed 9 rows and 0 columns

Continuous model is non-convex -- solving as a MIP.

Presolve removed 9 rows and 0 columns
Presolve time: 0.00s
Presolved: 189 rows, 57 columns, 443 nonzeros
Presolved model has 47 bilinear constraint(s)
Variable types: 57 continuous, 0 integer (0 binary)

Root relaxation: objective -1.743721e+00, 44 iterations, 0.00 seconds

    Nodes    |    Current Node    |     Objective Bounds      |     Work
 Expl Unexpl |  Obj  Depth IntInf | Incumbent    BestBd   Gap | It/Node Time

     0     0   -1.74372    0   38          -   -1.74372      -     -    0s
H    0     0                       0.6147548   -1.74372   384%     -    0s
     0     0   -1.64739    0    1    0.61475   -1.64739   368%     -    0s
H    0     0                      -1.6450460   -1.64739  0.14%     -    0s
     0     0     cutoff    0        -1.64505   -1.64505  0.00%     -    0s

Cutting planes:
  RLT: 25
  BQP: 3

Explored 1 nodes (76 simplex iterations) in 0.01 seconds
Thread count was 32 (of 72 available processors)

Solution count 2: -1.64505 0.614755 
No other solutions better than -1.64505

Optimal solution found (tolerance 1.00e-04)
Best objective -1.645045978473e+00, best bound -1.645045978473e+00, gap 0.0000%

User-callback calls 78, time in user-callback 0.00 sec
Gurobi Optimizer version 9.1.2 build v9.1.2rc0 (linux64)
Thread count: 36 physical cores, 72 logical processors, using up to 32 threads
Optimize a model with 24 rows, 120 columns and 2480 nonzeros
Model fingerprint: 0x79f0265a
Model has 100 quadratic constraints
Coefficient statistics:
  Matrix range     [8e-06, 4e+00]
  QMatrix range    [1e+00, 1e+00]
  QLMatrix range   [1e+00, 1e+00]
  Objective range  [9e-03, 2e+00]
  Bounds range     [1e+00, 1e+00]
  RHS range        [1e+00, 1e+00]
Presolve removed 17 rows and 0 columns

Continuous model is non-convex -- solving as a MIP.

Presolve removed 17 rows and 0 columns
Presolve time: 0.00s
Presolved: 407 rows, 120 columns, 1231 nonzeros
Presolved model has 100 bilinear constraint(s)
Variable types: 120 continuous, 0 integer (0 binary)

Root relaxation: objective -1.262590e+01, 128 iterations, 0.00 seconds

    Nodes    |    Current Node    |     Objective Bounds      |     Work
 Expl Unexpl |  Obj  Depth IntInf | Incumbent    BestBd   Gap | It/Node Time

     0     0  -12.62590    0   84          -  -12.62590      -     -    0s
H    0     0                       1.2436735  -12.62590  1115%     -    0s
     0     0   -8.95337    0  100    1.24367   -8.95337   820%     -    0s
     0     0   -7.97996    0   90    1.24367   -7.97996   742%     -    0s
H    0     0                      -1.5240176   -7.97996   424%     -    0s
     0     0   -7.96026    0   90   -1.52402   -7.96026   422%     -    0s
     0     0   -7.60698    0   90   -1.52402   -7.60698   399%     -    0s
     0     0   -7.52802    0   90   -1.52402   -7.52802   394%     -    0s
     0     0   -7.40468    0   90   -1.52402   -7.40468   386%     -    0s
     0     0   -7.40054    0   90   -1.52402   -7.40054   386%     -    0s
     0     0   -7.35239    0   90   -1.52402   -7.35239   382%     -    0s
     0     0   -7.35139    0   90   -1.52402   -7.35139   382%     -    0s
     0     0   -7.33987    0   90   -1.52402   -7.33987   382%     -    0s
     0     0   -7.33959    0   90   -1.52402   -7.33959   382%     -    0s
H    0     0                      -2.4969716   -7.33959   194%     -    0s
H    0     0                      -2.5206156   -7.33959   191%     -    0s
     0     2   -7.33959    0   90   -2.52062   -7.33959   191%     -    0s
*  902  1024              34      -2.9664145   -6.38878   115%  28.9    0s
* 1056  1208              22      -5.8119831   -6.38878  9.92%  26.7    0s
* 1893  1336              25      -5.9506873   -5.97383  0.39%  20.5    0s
* 1950  1336              24      -5.9506966   -5.97383  0.39%  20.1    0s
* 2240   988              27      -5.9531545   -5.97383  0.35%  18.8    0s
* 2746   467              31      -5.9531703   -5.95347  0.01%  15.7    0s

Cutting planes:
  RLT: 85
  BQP: 14
  PSD: 19

Explored 3229 nodes (43437 simplex iterations) in 0.74 seconds
Thread count was 32 (of 72 available processors)

Solution count 9: -5.95317 -5.95315 -5.9507 ... 1.24367

Optimal solution found (tolerance 1.00e-04)
Best objective -5.953170346112e+00, best bound -5.953468591575e+00, gap 0.0050%

User-callback calls 6725, time in user-callback 0.00 sec



objective value: -5.9531703461118735
objective bound: -5.953468591575412
x_opt: [0.0, 1.0, 1.0, 1.0, 1.0, 0.0, 0.0, 0.0, 0.2794013651626524, 1.0, 0.0, 0.2255374081638008, 1.0, 0.9992615057581274, 1.0, 0.0, 0.0, 0.0, 0.05263723556384733, 0.4953412583695404]
GUROBI solution time: 0.7449548244476318




